(set-logic ALL)
(declare-fun var0 () String)
(assert (str.in_re var0 (re.++ (re.+ (re.+ (re.union (re.union (re.union (str.to_re "000") (str.to_re "11")) (re.union (str.to_re "22") (str.to_re "33"))) (re.union (re.union (str.to_re "44") (str.to_re "5")) (re.union (str.to_re "666") (str.to_re "777")))))) (re.union (re.* (re.union (re.* (re.union (str.to_re "888") (str.to_re "9"))) (re.* (re.+ (str.to_re "aaa"))))) (re.* (re.+ (re.+ (re.union (str.to_re "b") (str.to_re "c")))))))))
(assert (<= 15 (str.len var0)))
(check-sat)